193
0 72 48 131 137 65 142 6 113 130 
37 192 163 103 172 88 85 32 147 146 
11 167 123 41 153 122 35 94 77 40 
66 43 177 1 79 21 157 76 17 12 
132 187 3 114 73 84 16 104 156 178 
169 183 7 120 60 63 62 133 28 134 
68 91 49 75 164 190 171 148 101 116 
159 53 118 90 39 126 119 31 182 188 
128 181 174 110 166 74 87 180 98 100 
161 2 149 52 42 135 97 176 108 96 
71 140 106 162 61 184 18 141 23 44 
127 69 13 152 82 15 78 47 5 144 
19 124 191 89 59 150 83 109 129 14 
10 105 33 115 9 173 24 25 168 121 
51 20 55 67 26 136 186 175 158 22 
95 93 111 155 46 160 58 45 143 57 
99 102 29 56 107 125 27 117 54 8 
165 138 80 34 179 4 50 139 36 112 
70 86 170 189 92 185 151 81 64 38 
154 30 145 
